w=30;
n=29;
W=[10, 7, 6, 9, 6, 5, 4, 7, 7, 9, 10, 6, 6, 11, 7, 11, 4, 8, 7, 6, 2, 3, 3, 2, 4, 4, 1, 4, 2];
H=[19, 25, 24, 16, 18, 21, 23, 13, 12, 9, 7, 11, 10, 5, 7, 4, 10, 5, 5, 5, 12, 6, 5, 7, 2, 2, 4, 1, 1];